28 37 28 37 28 37 37 28 37 37 28 28 37 28 37 37 37 28 37 37 37 37 28 28 37 28 28 28 37 37 28 28 37 28 37 37 37 37 37 28 28 37 37 37 28 28 28 37 28 37 28 28 28 28 28 37 28 37 37 28 28 37 28 37 37 37 28 37 28 37 37 28 37 28 37 37 37 37 28 37 28 28 37 28 28 28 28 28 37 37 28 37 37 28 37 28 28 37 37 28 